; faust :: corpus-study/repo_src/faust/faust/streams.py :: EVENT 'Stream.take::buffer_consumed' :: naive encoding (verdict: unsat)
; Generated by snf-pipeline (encoder.py) -- run with any
; SMT-LIB2-compliant solver, e.g. `z3 faust__corpus-study_repo_src_faust_faust_streams.py__Stream.take__buffer_consumed__naive.smt2`
; benchmark generated from python API
(set-info :status unknown)
(assert
 false)
(check-sat)
